&GLOBAL
PROJECT MOF
RUN_TYPE ENERGY_FORCE
WALLTIME 86000
&END GLOBAL
&MOTION
&CELL_OPT
TYPE DIRECT_CELL_OPT
OPTIMIZER BFGS
MAX_ITER 500
KEEP_ANGLES T
&END CELL_OPT
&GEO_OPT
TYPE minimization
OPTIMIZER BFGS
MAX_ITER 200
&END GEO_OPT
&END MOTION
&FORCE_EVAL
METHOD QS
STRESS_TENSOR ANALYTICAL
&DFT
BASIS_SET_FILE_NAME BASIS_MOLOPT
POTENTIAL_FILE_NAME GTH_POTENTIALS
CHARGE 0
UKS F
#MULTIPLICITY 19
#RELAX_MULTIPLICITY 0.1
&MGRID
CUTOFF 600
REL_CUTOFF 50
NGRIDS 4
&END MGRID
&QS
EPS_DEFAULT 1.0E-12
&END QS
&SCF
SCF_GUESS RESTART
EPS_SCF 1e-06
MAX_SCF 50
MAX_ITER_LUMO 10000
&OUTER_SCF
EPS_SCF 1e-06
MAX_SCF 50
&END OUTER_SCF
&MIXING
ALPHA 0.4
BETA 0.5
METHOD DIRECT_P_MIXING
&END MIXING
&OT
MINIMIZER BROYDEN
BROYDEN_BETA 0.9
BROYDEN_SIGMA 0.1
PRECONDITIONER FULL_ALL
&END OT
&END SCF
&XC
&XC_FUNCTIONAL PBE
&END XC_FUNCTIONAL
&vdW_POTENTIAL
DISPERSION_FUNCTIONAL PAIR_POTENTIAL
&PAIR_POTENTIAL
TYPE DFTD3
PARAMETER_FILE_NAME dftd3.dat
REFERENCE_FUNCTIONAL PBE
&END PAIR_POTENTIAL
&END vdW_POTENTIAL
&END XC
&PRINT
&HIRSHFELD OFF
&END HIRSHFELD
&LOWDIN OFF
&END LOWDIN
&MO_CUBES
ADD_LAST SYMBOLIC
&EACH
CELL_OPT 0
GEO_OPT 0
MD 0
&END EACH
NHOMO 1
NLUMO 1
WRITE_CUBE F
&END MO_CUBES
&END PRINT
&END DFT
&SUBSYS
&CELL
A 17.0651 0.0 0.0 
B 0.0011317936592083679 17.064999962468303 0.0 
C 0.0 0.0 14.5147
&END CELL
&COORD
@include coord.xyz
&END COORD
#&KIND C2
#ELEMENT C
#BASIS_SET DZVP-MOLOPT-SR-GTH-q4
#POTENTIAL GTH-PBE-q4
#&END KIND
#&KIND N
#ELEMENT N
#BASIS_SET DZVP-MOLOPT-SR-GTH-q5
#POTENTIAL GTH-PBE-q5
#&END KIND
&KIND H
ELEMENT H
BASIS_SET DZVP-MOLOPT-SR-GTH-q1
POTENTIAL GTH-PBE-q1
&END KIND
&KIND Cu
ELEMENT Cu
BASIS_SET DZVP-MOLOPT-SR-GTH-q11
POTENTIAL GTH-PBE-q11
&END KIND
&KIND C
ELEMENT C
BASIS_SET DZVP-MOLOPT-SR-GTH-q4
POTENTIAL GTH-PBE-q4
&END KIND
&KIND O
ELEMENT O
BASIS_SET DZVP-MOLOPT-SR-GTH-q6
POTENTIAL GTH-PBE-q6
&END KIND
&END SUBSYS
&PRINT
&FORCES ON
&END FORCES
&STRESS_TENSOR ON
&EACH
QS_SCF 0
&END EACH
ADD_LAST NUMERIC
&END STRESS_TENSOR
&END PRINT
&END FORCE_EVAL
