3
Lattice="31.28 0.0 0.0 0.0 31.28 0.0 0.0 0.0 31.28" Properties=species:S:1:pos:R:3:REF_forces:R:3 REF_energy=-468.47742625055065 REF_stress="-7.033188267102443e-06 7.427051315952282e-06 -1.8896961191468622e-05 7.427051315952282e-06 2.665700669005943e-05 4.158588815886665e-05 -1.8896961191468622e-05 4.158588815886665e-05 -3.934200133651209e-05" config_name=1h2o source=MD config_type=framework pbc="T T T"
O        3.12491000       6.80012100       2.89080000       1.00575179      -2.66417812       1.71186619
H        3.18540900       5.86912000       2.53240700      -0.22754314       1.55237861       0.16413254
H        2.82912800       7.38278900       2.23200400      -0.75259892       1.08516751      -1.91963036
